GLPSOL--GLPK LP/MIP Solver 5.0
Parameter(s) specified in the command line:
 --lp ../modeles/20_289.lp --log 20_289.log
Reading problem data from '../modeles/20_289.lp'...
5861 rows, 11600 columns, 40560 non-zeros
5780 integer variables, all of which are binary
17487 lines were read
GLPK Integer Optimizer 5.0
5861 rows, 11600 columns, 40560 non-zeros
5780 integer variables, all of which are binary
Preprocessing...
5720 constraint coefficient(s) were reduced
5861 rows, 11580 columns, 40540 non-zeros
5780 integer variables, all of which are binary
Scaling...
 A: min|aij| =  4.789e-05  max|aij| =  4.000e+00  ratio =  8.352e+04
GM: min|aij| =  5.882e-02  max|aij| =  1.700e+01  ratio =  2.890e+02
EQ: min|aij| =  3.460e-03  max|aij| =  1.000e+00  ratio =  2.890e+02
2N: min|aij| =  3.065e-03  max|aij| =  1.774e+00  ratio =  5.787e+02
Constructing initial basis...
Size of triangular part is 5861
Solving LP relaxation...
GLPK Simplex Optimizer 5.0
5861 rows, 11580 columns, 40540 non-zeros
      0: obj =   4.000000000e+01 inf =   9.950e+01 (41)
Perturbing LP to avoid stalling [199]...
    339: obj =   4.995270594e-01 inf =   0.000e+00 (0)
Removing LP perturbation [1145]...
*  1145: obj =  -4.470182742e+00 inf =   8.709e-15 (0) 1
OPTIMAL LP SOLUTION FOUND
Integer optimization begins...
Long-step dual simplex will be used
+  1145: mip =     not found yet >=              -inf        (1; 0)
+  1479: mip =     not found yet >=  -4.470182742e+00        (331; 0)
+  1596: >>>>>  -4.470182742e+00 >=  -4.470182742e+00 < 0.1% (446; 0)
+  1596: mip =  -4.470182742e+00 >=     tree is empty   0.0% (0; 891)
INTEGER OPTIMAL SOLUTION FOUND
Time used:   6.5 secs
Memory used: 16.8 Mb (17567650 bytes)
